Minimize
	value: tt

Subject to
tt + 2000 s_1_1 > 0
tt - t_1_1 - 2002.500000 s_1_1 + 2.500000 s_1_6 > -1999.202817
tt + 2000 s_2_1 > 0
tt - t_2_1 - 2005.000000 s_2_1 + 5.000000 s_2_6 > -1996.968680
tt + 2000 s_1_2 > 0
tt - t_1_2 - 2001.400350 s_1_2 + 1.400350 s_1_7 > -1999.035703
tt + 2000 s_2_2 > 0
tt - t_2_2 - 2002.800700 s_2_2 + 2.800700 s_2_7 > -1996.553909
tt + 2000 s_1_3 > 0
tt - t_1_3 - 2001.400350 s_1_3 + 1.400350 s_1_7 > -1998.774203
tt + 2000 s_2_3 > 0
tt - t_2_3 - 2002.800700 s_2_3 + 2.800700 s_2_7 > -1995.640124
tt + 2000 s_1_4 > 0
tt - t_1_4 - 2007.693623 s_1_4 + 7.693623 s_1_3 > -1999.425033
tt + 2000 s_2_4 > 0
tt - t_2_4 - 2015.387246 s_2_4 + 15.387246 s_2_3 > -1997.100164
tt + 2000 s_1_5 > 0
tt - t_1_5 - 2007.800700 s_1_5 + 7.800700 s_1_6 > -1999.056531
tt + 2000 s_2_5 > 0
tt - t_2_5 - 2015.601400 s_2_5 + 15.601400 s_2_6 > -1996.894103
tt + 2000 s_1_6 > 0
tt - t_1_6 - 2000.000000 s_1_6 > -1997.749556
tt + 2000 s_2_6 > 0
tt - t_2_6 - 2000.000000 s_2_6 > -1997.809756
tt + 2000 s_1_7 > 0
tt - t_1_7 - 2000.000000 s_1_7 > -1997.631700
tt + 2000 s_2_7 > 0
tt - t_2_7 - 2000.000000 s_2_7 > -1997.430497
tt + 2000 s_1_8 > 0
tt - t_1_8 - 2048.929231 s_1_8 + 48.929231 s_1_2 > -1999.823000
tt + 2000 s_2_8 > 0
tt - t_2_8 - 2097.858462 s_2_8 + 97.858462 s_2_2 > -1998.231222
s_1_1 + s_2_1  = 1
s_1_2 + s_2_2  = 1
s_1_3 + s_2_3  = 1
s_1_4 + s_2_4  = 1
s_1_5 + s_2_5  = 1
s_1_6 + s_2_6  = 1
s_1_7 + s_2_7  = 1
s_1_8 + s_2_8  = 1
t_1_1 - t_1_2 + 2000.000000 u_1_1_2 - 1.400350 s_1_2 + 1.400350 s_1_7 > 0.964297
t_1_2 - t_1_1 - 2000.000000 u_1_1_2 > -1999.202817
t_2_1 - t_2_2 + 2000.000000 u_2_1_2 - 2.800700 s_2_2 + 2.800700 s_2_7 > 3.446091
t_2_2 - t_2_1 - 2000.000000 u_2_1_2 > -1996.968680
t_1_1 - t_1_3 + 2000.000000 u_1_1_3 - 1.400350 s_1_3 + 1.400350 s_1_7 > 1.225797
t_1_3 - t_1_1 - 2000.000000 u_1_1_3 > -1999.202817
t_2_1 - t_2_3 + 2000.000000 u_2_1_3 - 2.800700 s_2_3 + 2.800700 s_2_7 > 4.359876
t_2_3 - t_2_1 - 2000.000000 u_2_1_3 > -1996.968680
t_1_1 - t_1_4 + 2000.000000 u_1_1_4 - 3.846812 s_1_4 + 3.846812 s_1_3 > 0.574967
t_1_4 - t_1_1 - 2000.000000 u_1_1_4 > -1999.202817
t_2_1 - t_2_4 + 2000.000000 u_2_1_4 - 7.693623 s_2_4 + 7.693623 s_2_3 > 2.899836
t_2_4 - t_2_1 - 2000.000000 u_2_1_4 > -1996.968680
t_1_1 - t_1_5 + 2000.000000 u_1_1_5 - 3.900350 s_1_5 + 3.900350 s_1_6 > 0.943469
t_1_5 - t_1_1 - 2000.000000 u_1_1_5 > -1999.202817
t_2_1 - t_2_5 + 2000.000000 u_2_1_5 - 7.800700 s_2_5 + 7.800700 s_2_6 > 3.105897
t_2_5 - t_2_1 - 2000.000000 u_2_1_5 > -1996.968680
t_1_1 - t_1_6 - 2000.000000 s_1_6 > -1990.385820
t_1_1 - t_2_6 - 2000.000000 s_2_6 > -1983.082285
t_2_1 - t_1_6 - 2000.000000 s_1_6 > -1990.385820
t_2_1 - t_2_6 - 2000.000000 s_2_6 > -1983.082285
t_1_1 - t_1_7 + 2000.000000 u_1_1_7 > 2.368300
t_1_7 - t_1_1 - 2000.000000 u_1_1_7 > -1999.202817
t_2_1 - t_2_7 + 2000.000000 u_2_1_7 > 2.569503
t_2_7 - t_2_1 - 2000.000000 u_2_1_7 > -1996.968680
t_1_8 - t_1_1 - 2000.000000 s_1_1 > -1996.702817
t_1_8 - t_2_1 - 2000.000000 s_2_1 > -1991.968680
t_2_8 - t_1_1 - 2000.000000 s_1_1 > -1996.702817
t_2_8 - t_2_1 - 2000.000000 s_2_1 > -1991.968680
t_1_2 - t_1_1 + 2000.000000 u_1_2_1 - 2.500000 s_1_1 + 2.500000 s_1_6 > 0.797183
t_1_1 - t_1_2 - 2000.000000 u_1_2_1 > -1999.035703
t_2_2 - t_2_1 + 2000.000000 u_2_2_1 - 5.000000 s_2_1 + 5.000000 s_2_6 > 3.031320
t_2_1 - t_2_2 - 2000.000000 u_2_2_1 > -1996.553909
t_1_2 - t_1_3 + 2000.000000 u_1_2_3 - 1.400350 s_1_3 + 1.400350 s_1_7 > 1.225797
t_1_3 - t_1_2 - 2000.000000 u_1_2_3 > -1999.035703
t_2_2 - t_2_3 + 2000.000000 u_2_2_3 - 2.800700 s_2_3 + 2.800700 s_2_7 > 4.359876
t_2_3 - t_2_2 - 2000.000000 u_2_2_3 > -1996.553909
t_1_2 - t_1_4 + 2000.000000 u_1_2_4 - 3.846812 s_1_4 + 3.846812 s_1_3 > 0.574967
t_1_4 - t_1_2 - 2000.000000 u_1_2_4 > -1999.035703
t_2_2 - t_2_4 + 2000.000000 u_2_2_4 - 7.693623 s_2_4 + 7.693623 s_2_3 > 2.899836
t_2_4 - t_2_2 - 2000.000000 u_2_2_4 > -1996.553909
t_1_2 - t_1_5 + 2000.000000 u_1_2_5 - 3.900350 s_1_5 + 3.900350 s_1_6 > 0.943469
t_1_5 - t_1_2 - 2000.000000 u_1_2_5 > -1999.035703
t_2_2 - t_2_5 + 2000.000000 u_2_2_5 - 7.800700 s_2_5 + 7.800700 s_2_6 > 3.105897
t_2_5 - t_2_2 - 2000.000000 u_2_2_5 > -1996.553909
t_1_2 - t_1_6 + 2000.000000 u_1_2_6 > 2.250444
t_1_6 - t_1_2 - 2000.000000 u_1_2_6 > -1999.035703
t_2_2 - t_2_6 + 2000.000000 u_2_2_6 > 2.190244
t_2_6 - t_2_2 - 2000.000000 u_2_2_6 > -1996.553909
t_1_2 - t_1_7 - 2000.000000 s_1_7 > -1990.267965
t_1_2 - t_2_7 - 2000.000000 s_2_7 > -1982.703027
t_2_2 - t_1_7 - 2000.000000 s_1_7 > -1990.267965
t_2_2 - t_2_7 - 2000.000000 s_2_7 > -1982.703027
t_1_8 - t_1_2 - 2000.000000 s_1_2 > -1997.635353
t_1_8 - t_2_2 - 2000.000000 s_2_2 > -1993.753209
t_2_8 - t_1_2 - 2000.000000 s_1_2 > -1997.635353
t_2_8 - t_2_2 - 2000.000000 s_2_2 > -1993.753209
t_1_3 - t_1_1 + 2000.000000 u_1_3_1 - 2.500000 s_1_1 + 2.500000 s_1_6 > 0.797183
t_1_1 - t_1_3 - 2000.000000 u_1_3_1 > -1998.774203
t_2_3 - t_2_1 + 2000.000000 u_2_3_1 - 5.000000 s_2_1 + 5.000000 s_2_6 > 3.031320
t_2_1 - t_2_3 - 2000.000000 u_2_3_1 > -1995.640124
t_1_3 - t_1_2 + 2000.000000 u_1_3_2 - 1.400350 s_1_2 + 1.400350 s_1_7 > 0.964297
t_1_2 - t_1_3 - 2000.000000 u_1_3_2 > -1998.774203
t_2_3 - t_2_2 + 2000.000000 u_2_3_2 - 2.800700 s_2_2 + 2.800700 s_2_7 > 3.446091
t_2_2 - t_2_3 - 2000.000000 u_2_3_2 > -1995.640124
t_1_4 - t_1_3 - 2000.000000 s_1_3 > -1997.373853
t_1_4 - t_2_3 - 2000.000000 s_2_3 > -1992.839424
t_2_4 - t_1_3 - 2000.000000 s_1_3 > -1997.373853
t_2_4 - t_2_3 - 2000.000000 s_2_3 > -1992.839424
t_1_3 - t_1_5 + 2000.000000 u_1_3_5 - 3.900350 s_1_5 + 3.900350 s_1_6 > 0.943469
t_1_5 - t_1_3 - 2000.000000 u_1_3_5 > -1998.774203
t_2_3 - t_2_5 + 2000.000000 u_2_3_5 - 7.800700 s_2_5 + 7.800700 s_2_6 > 3.105897
t_2_5 - t_2_3 - 2000.000000 u_2_3_5 > -1995.640124
t_1_3 - t_1_6 + 2000.000000 u_1_3_6 > 2.250444
t_1_6 - t_1_3 - 2000.000000 u_1_3_6 > -1998.774203
t_2_3 - t_2_6 + 2000.000000 u_2_3_6 > 2.190244
t_2_6 - t_2_3 - 2000.000000 u_2_3_6 > -1995.640124
t_1_3 - t_1_7 - 2000.000000 s_1_7 > -1990.267965
t_1_3 - t_2_7 - 2000.000000 s_2_7 > -1982.703027
t_2_3 - t_1_7 - 2000.000000 s_1_7 > -1990.267965
t_2_3 - t_2_7 - 2000.000000 s_2_7 > -1982.703027
t_1_8 - t_1_3 - 2000.000000 s_1_3 > -1997.373853
t_1_8 - t_2_3 - 2000.000000 s_2_3 > -1992.839424
t_2_8 - t_1_3 - 2000.000000 s_1_3 > -1997.373853
t_2_8 - t_2_3 - 2000.000000 s_2_3 > -1992.839424
t_1_4 - t_1_1 + 2000.000000 u_1_4_1 - 2.500000 s_1_1 + 2.500000 s_1_6 > 0.797183
t_1_1 - t_1_4 - 2000.000000 u_1_4_1 > -1999.425033
t_2_4 - t_2_1 + 2000.000000 u_2_4_1 - 5.000000 s_2_1 + 5.000000 s_2_6 > 3.031320
t_2_1 - t_2_4 - 2000.000000 u_2_4_1 > -1997.100164
t_1_4 - t_1_2 + 2000.000000 u_1_4_2 - 1.400350 s_1_2 + 1.400350 s_1_7 > 0.964297
t_1_2 - t_1_4 - 2000.000000 u_1_4_2 > -1999.425033
t_2_4 - t_2_2 + 2000.000000 u_2_4_2 - 2.800700 s_2_2 + 2.800700 s_2_7 > 3.446091
t_2_2 - t_2_4 - 2000.000000 u_2_4_2 > -1997.100164
t_1_4 - t_1_3 - 2000.000000 s_1_3 > -1997.373853
t_1_4 - t_2_3 - 2000.000000 s_2_3 > -1992.839424
t_2_4 - t_1_3 - 2000.000000 s_1_3 > -1997.373853
t_2_4 - t_2_3 - 2000.000000 s_2_3 > -1992.839424
t_1_4 - t_1_5 + 2000.000000 u_1_4_5 - 3.900350 s_1_5 + 3.900350 s_1_6 > 0.943469
t_1_5 - t_1_4 - 2000.000000 u_1_4_5 > -1999.425033
t_2_4 - t_2_5 + 2000.000000 u_2_4_5 - 7.800700 s_2_5 + 7.800700 s_2_6 > 3.105897
t_2_5 - t_2_4 - 2000.000000 u_2_4_5 > -1997.100164
t_1_4 - t_1_6 + 2000.000000 u_1_4_6 > 2.250444
t_1_6 - t_1_4 - 2000.000000 u_1_4_6 > -1999.425033
t_2_4 - t_2_6 + 2000.000000 u_2_4_6 > 2.190244
t_2_6 - t_2_4 - 2000.000000 u_2_4_6 > -1997.100164
t_1_4 - t_1_7 - 2000.000000 s_1_7 > -1990.267965
t_1_4 - t_2_7 - 2000.000000 s_2_7 > -1982.703027
t_2_4 - t_1_7 - 2000.000000 s_1_7 > -1990.267965
t_2_4 - t_2_7 - 2000.000000 s_2_7 > -1982.703027
t_1_8 - t_1_4 - 2000.000000 s_1_4 > -1995.578222
t_1_8 - t_2_4 - 2000.000000 s_2_4 > -1989.406541
t_2_8 - t_1_4 - 2000.000000 s_1_4 > -1995.578222
t_2_8 - t_2_4 - 2000.000000 s_2_4 > -1989.406541
t_1_5 - t_1_1 + 2000.000000 u_1_5_1 - 2.500000 s_1_1 + 2.500000 s_1_6 > 0.797183
t_1_1 - t_1_5 - 2000.000000 u_1_5_1 > -1999.056531
t_2_5 - t_2_1 + 2000.000000 u_2_5_1 - 5.000000 s_2_1 + 5.000000 s_2_6 > 3.031320
t_2_1 - t_2_5 - 2000.000000 u_2_5_1 > -1996.894103
t_1_5 - t_1_2 + 2000.000000 u_1_5_2 - 1.400350 s_1_2 + 1.400350 s_1_7 > 0.964297
t_1_2 - t_1_5 - 2000.000000 u_1_5_2 > -1999.056531
t_2_5 - t_2_2 + 2000.000000 u_2_5_2 - 2.800700 s_2_2 + 2.800700 s_2_7 > 3.446091
t_2_2 - t_2_5 - 2000.000000 u_2_5_2 > -1996.894103
t_1_5 - t_1_3 + 2000.000000 u_1_5_3 - 1.400350 s_1_3 + 1.400350 s_1_7 > 1.225797
t_1_3 - t_1_5 - 2000.000000 u_1_5_3 > -1999.056531
t_2_5 - t_2_3 + 2000.000000 u_2_5_3 - 2.800700 s_2_3 + 2.800700 s_2_7 > 4.359876
t_2_3 - t_2_5 - 2000.000000 u_2_5_3 > -1996.894103
t_1_5 - t_1_4 + 2000.000000 u_1_5_4 - 3.846812 s_1_4 + 3.846812 s_1_3 > 0.574967
t_1_4 - t_1_5 - 2000.000000 u_1_5_4 > -1999.056531
t_2_5 - t_2_4 + 2000.000000 u_2_5_4 - 7.693623 s_2_4 + 7.693623 s_2_3 > 2.899836
t_2_4 - t_2_5 - 2000.000000 u_2_5_4 > -1996.894103
t_1_5 - t_1_6 - 2000.000000 s_1_6 > -1990.385820
t_1_5 - t_2_6 - 2000.000000 s_2_6 > -1983.082285
t_2_5 - t_1_6 - 2000.000000 s_1_6 > -1990.385820
t_2_5 - t_2_6 - 2000.000000 s_2_6 > -1983.082285
t_1_5 - t_1_7 - 2000.000000 s_1_7 > -1990.267965
t_1_5 - t_2_7 - 2000.000000 s_2_7 > -1982.703027
t_2_5 - t_1_7 - 2000.000000 s_1_7 > -1990.267965
t_2_5 - t_2_7 - 2000.000000 s_2_7 > -1982.703027
t_1_8 - t_1_5 - 2000.000000 s_1_5 > -1995.156181
t_1_8 - t_2_5 - 2000.000000 s_2_5 > -1989.093403
t_2_8 - t_1_5 - 2000.000000 s_1_5 > -1995.156181
t_2_8 - t_2_5 - 2000.000000 s_2_5 > -1989.093403
t_1_1 - t_1_6 - 2000.000000 s_1_6 > -1990.385820
t_1_1 - t_2_6 - 2000.000000 s_2_6 > -1983.082285
t_2_1 - t_1_6 - 2000.000000 s_1_6 > -1990.385820
t_2_1 - t_2_6 - 2000.000000 s_2_6 > -1983.082285
t_1_6 - t_1_2 + 2000.000000 u_1_6_2 - 1.400350 s_1_2 + 1.400350 s_1_7 > 0.964297
t_1_2 - t_1_6 - 2000.000000 u_1_6_2 > -1997.749556
t_2_6 - t_2_2 + 2000.000000 u_2_6_2 - 2.800700 s_2_2 + 2.800700 s_2_7 > 3.446091
t_2_2 - t_2_6 - 2000.000000 u_2_6_2 > -1997.809756
t_1_6 - t_1_3 + 2000.000000 u_1_6_3 - 1.400350 s_1_3 + 1.400350 s_1_7 > 1.225797
t_1_3 - t_1_6 - 2000.000000 u_1_6_3 > -1997.749556
t_2_6 - t_2_3 + 2000.000000 u_2_6_3 - 2.800700 s_2_3 + 2.800700 s_2_7 > 4.359876
t_2_3 - t_2_6 - 2000.000000 u_2_6_3 > -1997.809756
t_1_6 - t_1_4 + 2000.000000 u_1_6_4 - 3.846812 s_1_4 + 3.846812 s_1_3 > 0.574967
t_1_4 - t_1_6 - 2000.000000 u_1_6_4 > -1997.749556
t_2_6 - t_2_4 + 2000.000000 u_2_6_4 - 7.693623 s_2_4 + 7.693623 s_2_3 > 2.899836
t_2_4 - t_2_6 - 2000.000000 u_2_6_4 > -1997.809756
t_1_5 - t_1_6 - 2000.000000 s_1_6 > -1990.385820
t_1_5 - t_2_6 - 2000.000000 s_2_6 > -1983.082285
t_2_5 - t_1_6 - 2000.000000 s_1_6 > -1990.385820
t_2_5 - t_2_6 - 2000.000000 s_2_6 > -1983.082285
t_1_6 - t_1_7 + 2000.000000 u_1_6_7 > 2.368300
t_1_7 - t_1_6 - 2000.000000 u_1_6_7 > -1997.749556
t_2_6 - t_2_7 + 2000.000000 u_2_6_7 > 2.569503
t_2_7 - t_2_6 - 2000.000000 u_2_6_7 > -1997.809756
t_1_7 - t_1_1 + 2000.000000 u_1_7_1 - 2.500000 s_1_1 + 2.500000 s_1_6 > 0.797183
t_1_1 - t_1_7 - 2000.000000 u_1_7_1 > -1997.631700
t_2_7 - t_2_1 + 2000.000000 u_2_7_1 - 5.000000 s_2_1 + 5.000000 s_2_6 > 3.031320
t_2_1 - t_2_7 - 2000.000000 u_2_7_1 > -1997.430497
t_1_2 - t_1_7 - 2000.000000 s_1_7 > -1990.267965
t_1_2 - t_2_7 - 2000.000000 s_2_7 > -1982.703027
t_2_2 - t_1_7 - 2000.000000 s_1_7 > -1990.267965
t_2_2 - t_2_7 - 2000.000000 s_2_7 > -1982.703027
t_1_3 - t_1_7 - 2000.000000 s_1_7 > -1990.267965
t_1_3 - t_2_7 - 2000.000000 s_2_7 > -1982.703027
t_2_3 - t_1_7 - 2000.000000 s_1_7 > -1990.267965
t_2_3 - t_2_7 - 2000.000000 s_2_7 > -1982.703027
t_1_4 - t_1_7 - 2000.000000 s_1_7 > -1990.267965
t_1_4 - t_2_7 - 2000.000000 s_2_7 > -1982.703027
t_2_4 - t_1_7 - 2000.000000 s_1_7 > -1990.267965
t_2_4 - t_2_7 - 2000.000000 s_2_7 > -1982.703027
t_1_5 - t_1_7 - 2000.000000 s_1_7 > -1990.267965
t_1_5 - t_2_7 - 2000.000000 s_2_7 > -1982.703027
t_2_5 - t_1_7 - 2000.000000 s_1_7 > -1990.267965
t_2_5 - t_2_7 - 2000.000000 s_2_7 > -1982.703027
t_1_7 - t_1_6 + 2000.000000 u_1_7_6 > 2.250444
t_1_6 - t_1_7 - 2000.000000 u_1_7_6 > -1997.631700
t_2_7 - t_2_6 + 2000.000000 u_2_7_6 > 2.190244
t_2_6 - t_2_7 - 2000.000000 u_2_7_6 > -1997.430497
t_1_8 - t_1_1 - 2000.000000 s_1_1 > -1996.702817
t_1_8 - t_2_1 - 2000.000000 s_2_1 > -1991.968680
t_2_8 - t_1_1 - 2000.000000 s_1_1 > -1996.702817
t_2_8 - t_2_1 - 2000.000000 s_2_1 > -1991.968680
t_1_8 - t_1_2 - 2000.000000 s_1_2 > -1997.635353
t_1_8 - t_2_2 - 2000.000000 s_2_2 > -1993.753209
t_2_8 - t_1_2 - 2000.000000 s_1_2 > -1997.635353
t_2_8 - t_2_2 - 2000.000000 s_2_2 > -1993.753209
t_1_8 - t_1_3 - 2000.000000 s_1_3 > -1997.373853
t_1_8 - t_2_3 - 2000.000000 s_2_3 > -1992.839424
t_2_8 - t_1_3 - 2000.000000 s_1_3 > -1997.373853
t_2_8 - t_2_3 - 2000.000000 s_2_3 > -1992.839424
t_1_8 - t_1_4 - 2000.000000 s_1_4 > -1995.578222
t_1_8 - t_2_4 - 2000.000000 s_2_4 > -1989.406541
t_2_8 - t_1_4 - 2000.000000 s_1_4 > -1995.578222
t_2_8 - t_2_4 - 2000.000000 s_2_4 > -1989.406541
t_1_8 - t_1_5 - 2000.000000 s_1_5 > -1995.156181
t_1_8 - t_2_5 - 2000.000000 s_2_5 > -1989.093403
t_2_8 - t_1_5 - 2000.000000 s_1_5 > -1995.156181
t_2_8 - t_2_5 - 2000.000000 s_2_5 > -1989.093403
Binary
s_1_1
s_2_1
s_1_2
s_2_2
s_1_3
s_2_3
s_1_4
s_2_4
s_1_5
s_2_5
s_1_6
s_2_6
s_1_7
s_2_7
s_1_8
s_2_8
u_1_1_2
u_2_1_2
u_1_1_3
u_2_1_3
u_1_1_4
u_2_1_4
u_1_1_5
u_2_1_5
u_1_1_7
u_2_1_7
u_1_2_1
u_2_2_1
u_1_2_3
u_2_2_3
u_1_2_4
u_2_2_4
u_1_2_5
u_2_2_5
u_1_2_6
u_2_2_6
u_1_3_1
u_2_3_1
u_1_3_2
u_2_3_2
u_1_3_5
u_2_3_5
u_1_3_6
u_2_3_6
u_1_4_1
u_2_4_1
u_1_4_2
u_2_4_2
u_1_4_5
u_2_4_5
u_1_4_6
u_2_4_6
u_1_5_1
u_2_5_1
u_1_5_2
u_2_5_2
u_1_5_3
u_2_5_3
u_1_5_4
u_2_5_4
u_1_6_2
u_2_6_2
u_1_6_3
u_2_6_3
u_1_6_4
u_2_6_4
u_1_6_7
u_2_6_7
u_1_7_1
u_2_7_1
u_1_7_6
u_2_7_6

End
